NAME : XML100_3375_11
DIMENSION : 101
NB_CLUSTERS : 3
CLUSTERING_ALG : KMedoids
CLUSTERING_PARAMS : k(2)
CLUSTERS
1 0
2 3 5 9 10 13 14 15 17 18 19 22 24 26 27 28 29 30 33 36 37 38 39 40 41 43 44 48 51 52 55 59 60 61 63 64 66 67 69 71 72 75 77 85 86 89 90 99 100
3 1 2 4 6 7 8 11 12 16 20 21 23 25 31 32 34 35 42 45 46 47 49 50 53 54 56 57 58 62 65 68 70 73 74 76 78 79 80 81 82 83 84 87 88 91 92 93 94 95 96 97 98
EOF